Maximize
  22 x0 - 33 x1 + x2 + 2 x3 + 10 x4 + 10 x5 + 8 x6 - 30 x7 + 31 x8 + 35 x9
   + 16 x10 + 45 x11 + 24 x12 - 31 x13 + 32 x14 + 20 x15 + 32 x16 - 24 x17
   + 11 x18 + 46 x19 + 41 x20 - 2 x21 + 0 x22 + 14 x23 - 39 x24 - 48 x25
   + 23 x26 - 22 x27 - 35 x28 + x29 + 24 x30 + 6 x31 - 21 x32 + 28 x33
   + 17 x34 + 40 x35 - 3 x36 + 37 x37 - 20 x38 + 8 x39 - 11 x40 + 18 x41
   - 50 x42 - 21 x43 - 30 x44 - 14 x45 - 23 x46 - 42 x47 + 22 x48 + 2 x49
   + 10 x50 - 15 x51 + 37 x52 + 49 x53 + 11 x54 - 37 x55 - 14 x56 + 35 x57
   + 23 x58 - 47 x59 - 39 x60 - 26 x61 + 6 x62 + x63 + 43 x64 + 24 x65
   + 31 x66 + 43 x67 + 7 x68 - 22 x69 + 33 x70 - 20 x71 + 26 x72 + 32 x73
   - 40 x74 - 31 x75 - 24 x76 - 8 x77 + 22 x78 - 13 x79 - 34 x80 - 13 x81
   - 28 x82 + 16 x83 + 39 x84 + 22 x85 - 26 x86 + 27 x87 - 28 x88 + 24 x89
   + 28 x90 - 33 x91 - 46 x92 - 24 x93 + 36 x94 + 35 x95 - 22 x96 - 36 x97
   + 19 x98 - 15 x99 + 11 x100 + 0 x101 + 10 x102 - 40 x103 - 5 x104
   - 7 x105 + 2 x106 + 13 x107 - 3 x108 + 29 x109 - 33 x110 - 42 x111
   + 40 x112 + 32 x113 + 44 x114 + 11 x115 - 12 x116 + 21 x117 + 21 x118
   + 17 x119 - 36 x120 + 50 x121 - 21 x122 - 9 x123 - 5 x124 + [ 10 x0 * x1
   + 2 x0 * x4 + 2 x0 * x5 + 40 x0 * x7 - 22 x0 * x15 - 30 x0 * x29
   + 84 x0 * x38 - 14 x0 * x39 + 8 x0 * x41 + 52 x0 * x44 - 20 x0 * x46
   - 76 x0 * x51 + 10 x0 * x53 - 52 x0 * x60 - 94 x0 * x65 + 60 x0 * x68
   + 98 x0 * x71 + 78 x0 * x72 - 6 x0 * x75 + 28 x0 * x81 + 100 x0 * x84
   - 38 x0 * x87 + 96 x0 * x93 - 4 x0 * x96 + 74 x0 * x98 + 70 x0 * x100
   - 60 x0 * x102 - 46 x0 * x103 - 46 x0 * x110 - 80 x0 * x111
   + 8 x0 * x113 + 52 x0 * x114 + 58 x1 * x4 - 14 x1 * x5 + 28 x1 * x6
   + 74 x1 * x12 + 56 x1 * x19 - 50 x1 * x22 - 34 x1 * x24 + 50 x1 * x28
   + 98 x1 * x31 - 16 x1 * x42 - 4 x1 * x43 + 76 x1 * x44 - 60 x1 * x45
   + 72 x1 * x58 - 72 x1 * x65 - 10 x1 * x68 - 68 x1 * x72 + 76 x1 * x73
   + 44 x1 * x90 + 32 x1 * x91 - 84 x1 * x93 + 44 x1 * x99 - 56 x1 * x101
   + 42 x1 * x113 + 100 x1 * x114 - 48 x1 * x124 + 12 x2 ^2 - 76 x2 * x5
   + 18 x2 * x13 + 76 x2 * x15 + 12 x2 * x20 - 14 x2 * x29 + 24 x2 * x31
   + 72 x2 * x44 - 94 x2 * x46 - 62 x2 * x47 + 58 x2 * x52 + 38 x2 * x54
   - 30 x2 * x57 + 38 x2 * x59 + 14 x2 * x62 + 80 x2 * x67 + 46 x2 * x69
   + 58 x2 * x70 - 10 x2 * x81 + 6 x2 * x85 - 42 x2 * x91 - 14 x2 * x93
   - 70 x2 * x94 - 8 x2 * x95 - 96 x2 * x99 + 98 x2 * x100 - 14 x2 * x102
   + 28 x2 * x107 + 62 x2 * x109 - 8 x2 * x124 - 54 x3 * x14 + 2 x3 * x20
   - 68 x3 * x24 + 10 x3 * x26 + 98 x3 * x27 - 84 x3 * x29 - 56 x3 * x37
   - 82 x3 * x40 + 60 x3 * x43 - 30 x3 * x46 - 78 x3 * x47 + 6 x3 * x51
   - 32 x3 * x53 - 86 x3 * x54 - 34 x3 * x55 - 84 x3 * x56 - 40 x3 * x57
   - 62 x3 * x59 - 34 x3 * x61 + 14 x3 * x63 - 4 x3 * x68 - 80 x3 * x73
   + 28 x3 * x79 + 66 x3 * x81 - 22 x3 * x82 + 6 x3 * x83 + 70 x3 * x85
   - 62 x3 * x86 + 52 x3 * x90 - 64 x3 * x96 + 8 x3 * x102 + 20 x3 * x104
   + 30 x3 * x107 - 76 x3 * x109 - 22 x3 * x121 + 58 x3 * x124 - 80 x4 * x5
   - 26 x4 * x8 - 42 x4 * x9 + 46 x4 * x18 + 64 x4 * x28 + 48 x4 * x33
   + 90 x4 * x34 + 44 x4 * x35 + 58 x4 * x40 - 38 x4 * x43 - 78 x4 * x44
   + 8 x4 * x51 - 26 x4 * x52 - 58 x4 * x55 - 6 x4 * x60 - 74 x4 * x70
   - 38 x4 * x76 - 98 x4 * x77 + 18 x4 * x79 + 54 x4 * x80 - 72 x4 * x85
   - 82 x4 * x86 + 88 x4 * x88 - 34 x4 * x91 + 54 x4 * x92 - 20 x4 * x96
   + 72 x4 * x97 - 24 x4 * x98 + 32 x4 * x102 - 22 x4 * x103 - 82 x4 * x106
   - 66 x4 * x109 - 52 x4 * x110 - 94 x4 * x116 + 92 x4 * x122
   + 36 x4 * x123 - 15 x5 ^2 - 38 x5 * x11 + 84 x5 * x12 + 74 x5 * x14
   + 80 x5 * x21 - 50 x5 * x22 - 2 x5 * x23 - 48 x5 * x24 + 70 x5 * x28
   - 6 x5 * x29 - 36 x5 * x31 - 6 x5 * x35 + 12 x5 * x36 + 98 x5 * x39
   + 96 x5 * x43 - 20 x5 * x46 + 62 x5 * x47 + 32 x5 * x53 + 78 x5 * x60
   + 78 x5 * x64 + 12 x5 * x67 - 4 x5 * x70 + 66 x5 * x81 - 100 x5 * x82
   + 32 x5 * x85 + 42 x5 * x87 - 50 x5 * x91 + 24 x5 * x94 - 38 x5 * x96
   - 72 x5 * x110 - 40 x5 * x119 + 60 x6 * x10 + 48 x6 * x11 - 64 x6 * x13
   + 48 x6 * x14 - 100 x6 * x17 - 80 x6 * x18 + 58 x6 * x19 - 26 x6 * x21
   + 10 x6 * x37 + 42 x6 * x40 - 60 x6 * x41 + 58 x6 * x42 - 18 x6 * x48
   - 18 x6 * x49 + 18 x6 * x51 - 78 x6 * x54 - 42 x6 * x55 + 24 x6 * x58
   - 14 x6 * x60 - 2 x6 * x75 + 78 x6 * x83 - 22 x6 * x85 + 76 x6 * x91
   - 14 x6 * x103 + 24 x6 * x111 - 16 x6 * x115 - 60 x6 * x116
   - 42 x6 * x117 - 8 x6 * x123 - 52 x7 * x8 + 98 x7 * x9 - 46 x7 * x13
   - 62 x7 * x21 - 32 x7 * x22 - 52 x7 * x23 - 26 x7 * x26 - 40 x7 * x28
   + 28 x7 * x31 - 40 x7 * x37 - 20 x7 * x38 + 28 x7 * x44 - 84 x7 * x45
   - 28 x7 * x48 + 64 x7 * x49 - 2 x7 * x57 - 74 x7 * x60 - 46 x7 * x61
   + 2 x7 * x63 - 46 x7 * x69 + 86 x7 * x80 - 54 x7 * x82 - 50 x7 * x93
   + 94 x7 * x95 - 2 x7 * x100 - 6 x7 * x102 + 94 x7 * x104 + 70 x7 * x105
   - 14 x7 * x106 + 36 x7 * x112 + 88 x7 * x116 - 6 x7 * x117
   - 84 x7 * x119 + 68 x7 * x120 - 58 x7 * x121 - 66 x7 * x122 + 50 x8 ^2
   - 16 x8 * x11 + 26 x8 * x13 + 76 x8 * x18 + 68 x8 * x19 - 88 x8 * x22
   + 16 x8 * x27 + 64 x8 * x33 + 90 x8 * x34 - 20 x8 * x36 + 84 x8 * x38
   + 34 x8 * x40 + 82 x8 * x41 + 42 x8 * x45 - 24 x8 * x48 + 44 x8 * x50
   - 38 x8 * x53 + 20 x8 * x64 + 90 x8 * x65 - 66 x8 * x66 - 62 x8 * x72
   + 68 x8 * x76 - 18 x8 * x78 - 4 x8 * x80 - 2 x8 * x81 - 100 x8 * x86
   - 36 x8 * x87 + 36 x8 * x89 + 44 x8 * x90 - 86 x8 * x92 - 76 x8 * x96
   - 14 x8 * x106 - 88 x8 * x108 + 8 x8 * x110 - 90 x8 * x114
   + 82 x8 * x118 + 28 x8 * x122 + 32 x9 * x10 - 54 x9 * x14 - 16 x9 * x15
   + 76 x9 * x29 + 20 x9 * x33 - 86 x9 * x34 - 40 x9 * x36 + 28 x9 * x37
   + 72 x9 * x44 + 16 x9 * x49 - 50 x9 * x54 + 78 x9 * x60 - 86 x9 * x61
   + 72 x9 * x62 - 24 x9 * x65 + 88 x9 * x72 + 100 x9 * x73 + 64 x9 * x75
   + 74 x9 * x78 - 82 x9 * x81 + 36 x9 * x82 + 6 x9 * x83 - 34 x9 * x87
   + 32 x9 * x88 + 60 x9 * x90 + 78 x9 * x97 + 88 x9 * x98 - 24 x9 * x99
   - 88 x9 * x104 + 50 x9 * x110 + 64 x9 * x114 - 22 x9 * x121
   + 80 x9 * x122 - 82 x10 * x13 + 8 x10 * x19 + 88 x10 * x22
   - 52 x10 * x28 + 10 x10 * x36 + 4 x10 * x40 + 86 x10 * x42
   + 96 x10 * x46 - 50 x10 * x48 + 72 x10 * x50 - 36 x10 * x51
   - 24 x10 * x53 - 50 x10 * x54 - 72 x10 * x56 + 20 x10 * x57
   - 38 x10 * x78 + 36 x10 * x90 - 40 x10 * x104 - 42 x10 * x110
   - 40 x10 * x111 - 54 x10 * x115 + 6 x10 * x120 + 42 x10 * x121
   + 39 x11 ^2 - 94 x11 * x14 - 50 x11 * x21 - 8 x11 * x22 - 42 x11 * x24
   - 10 x11 * x44 - 54 x11 * x45 - 32 x11 * x46 + 94 x11 * x47
   + 66 x11 * x50 - 94 x11 * x59 - 30 x11 * x71 - 14 x11 * x74
   - 84 x11 * x81 - 56 x11 * x84 + 72 x11 * x89 - 34 x11 * x98
   + 96 x11 * x99 - 72 x11 * x106 - 52 x11 * x108 + 58 x11 * x113
   + 66 x11 * x115 + 46 x11 * x117 + 4 x11 * x122 - 44 x12 * x13
   - 96 x12 * x16 - 84 x12 * x19 - 14 x12 * x26 - 12 x12 * x29
   - 38 x12 * x30 - 32 x12 * x32 + 98 x12 * x34 + 54 x12 * x35
   + 46 x12 * x49 + 28 x12 * x50 + 88 x12 * x54 + 4 x12 * x59
   + 30 x12 * x61 - 26 x12 * x62 - 88 x12 * x73 + 52 x12 * x81
   + 6 x12 * x87 - 50 x12 * x89 + 8 x12 * x90 - 68 x12 * x94
   + 14 x12 * x103 + 6 x12 * x110 - 48 x12 * x113 + 86 x12 * x114
   - 30 x12 * x119 + 80 x12 * x122 - 68 x13 * x15 + 26 x13 * x18
   - 14 x13 * x19 + 58 x13 * x23 - 82 x13 * x24 + 48 x13 * x25
   + 64 x13 * x28 - 28 x13 * x29 + 28 x13 * x30 + 88 x13 * x31
   + 98 x13 * x32 + 100 x13 * x37 + 90 x13 * x46 + 36 x13 * x49
   - 78 x13 * x51 - 82 x13 * x53 + 52 x13 * x59 + 18 x13 * x70
   + 94 x13 * x71 + 4 x13 * x72 + 26 x13 * x79 + 86 x13 * x82
   + 64 x13 * x83 - 64 x13 * x86 - 88 x13 * x92 - 16 x13 * x93
   + 24 x13 * x95 + 92 x13 * x100 + 78 x13 * x104 + 20 x13 * x105
   - 52 x13 * x107 - 48 x13 * x108 + 46 x13 * x118 + 80 x13 * x119
   - 36 x13 * x122 - 44 x14 ^2 + 32 x14 * x16 - 52 x14 * x28 + 64 x14 * x39
   - 56 x14 * x41 + 76 x14 * x43 - 96 x14 * x47 + 18 x14 * x49
   + 44 x14 * x50 + 8 x14 * x58 + 34 x14 * x60 + 16 x14 * x63
   - 30 x14 * x64 - 44 x14 * x79 + 26 x14 * x85 + 76 x14 * x88
   + 24 x14 * x91 + 30 x14 * x93 - 22 x14 * x94 - 24 x14 * x100
   + 42 x14 * x102 + 24 x14 * x104 + 80 x14 * x105 + 4 x14 * x106
   + 84 x14 * x112 + 12 x14 * x114 + 74 x14 * x118 - 24 x14 * x122
   - 76 x14 * x124 - 30 x15 * x17 + 44 x15 * x19 - 44 x15 * x22
   + 12 x15 * x24 + 94 x15 * x25 + 84 x15 * x27 + 2 x15 * x28
   + 84 x15 * x33 - 56 x15 * x35 + 30 x15 * x36 + 6 x15 * x37
   - 38 x15 * x42 + 54 x15 * x44 - 42 x15 * x45 - 72 x15 * x46
   - 46 x15 * x52 + 14 x15 * x66 + 48 x15 * x67 + 10 x15 * x70
   - 72 x15 * x72 - 26 x15 * x76 - 62 x15 * x78 - 18 x15 * x79
   - 2 x15 * x81 - 48 x15 * x82 - 66 x15 * x83 - 94 x15 * x84 + 4 x15 * x86
   - 70 x15 * x88 + 86 x15 * x94 + 30 x15 * x97 + 92 x15 * x99
   - 80 x15 * x109 - 60 x15 * x110 - 74 x15 * x112 - 84 x15 * x116
   + 64 x15 * x117 - 11 x16 ^2 + 74 x16 * x17 - 66 x16 * x19 + 24 x16 * x20
   + 38 x16 * x22 + 60 x16 * x33 + 40 x16 * x35 + 14 x16 * x38
   - 18 x16 * x43 - 60 x16 * x48 + 74 x16 * x53 - 82 x16 * x54
   + 40 x16 * x56 + 32 x16 * x60 + 52 x16 * x64 - 46 x16 * x70
   + 58 x16 * x74 + 80 x16 * x81 + 72 x16 * x82 - 46 x16 * x86
   - 68 x16 * x87 + 8 x16 * x88 - 98 x16 * x93 - 40 x16 * x96
   + 42 x16 * x99 + 100 x16 * x103 + 46 x16 * x114 + 94 x16 * x116
   + 34 x16 * x117 - 58 x16 * x120 + 54 x16 * x122 + 82 x17 * x23
   + 80 x17 * x30 + 18 x17 * x31 - 22 x17 * x32 + 82 x17 * x33
   - 70 x17 * x42 + 74 x17 * x43 - 8 x17 * x58 - 42 x17 * x68
   - 56 x17 * x73 - 58 x17 * x79 + 88 x17 * x80 + 28 x17 * x81
   - 28 x17 * x82 - 68 x17 * x87 - 70 x17 * x88 + 64 x17 * x92
   + 30 x17 * x93 + 68 x17 * x96 + 88 x17 * x99 + 94 x17 * x106
   + 12 x17 * x111 + 40 x17 * x114 - 10 x17 * x115 + 4 x17 * x117
   - 92 x17 * x119 + 12 x17 * x121 - 12 x17 * x122 + 70 x17 * x123
   + 80 x18 * x20 + 90 x18 * x25 + 30 x18 * x37 - 46 x18 * x39
   - 10 x18 * x40 + 4 x18 * x42 - 56 x18 * x43 + 58 x18 * x54
   + 34 x18 * x59 - 94 x18 * x65 + 16 x18 * x72 - 60 x18 * x74
   + 32 x18 * x75 - 60 x18 * x82 + 42 x18 * x85 + 34 x18 * x90
   + 68 x18 * x92 - 96 x18 * x95 + 90 x18 * x99 - 82 x18 * x103
   + 80 x18 * x112 - 80 x18 * x116 - 56 x18 * x119 + 86 x19 * x26
   + 34 x19 * x27 - 6 x19 * x28 - 12 x19 * x31 - 66 x19 * x35
   + 12 x19 * x36 - 46 x19 * x41 + 84 x19 * x42 + 2 x19 * x46
   - 54 x19 * x48 + 14 x19 * x51 - 74 x19 * x53 - 58 x19 * x56
   + 92 x19 * x58 + 100 x19 * x67 + 76 x19 * x73 - 88 x19 * x77
   + 64 x19 * x82 + 34 x19 * x99 + 38 x19 * x101 + 36 x19 * x103
   + 98 x19 * x104 - 74 x19 * x107 - 60 x19 * x108 + 74 x19 * x114
   + 16 x19 * x117 - 10 x19 * x122 - 88 x20 * x23 + 26 x20 * x38
   + 100 x20 * x39 - 32 x20 * x41 + 52 x20 * x44 - 60 x20 * x45
   + 4 x20 * x53 + 76 x20 * x58 - 76 x20 * x63 + 74 x20 * x65
   - 54 x20 * x69 - 10 x20 * x76 - 82 x20 * x79 + 74 x20 * x84
   + 4 x20 * x87 - 52 x20 * x91 + 18 x20 * x95 - 22 x20 * x97
   + 54 x20 * x102 + 12 x20 * x105 + 92 x20 * x116 - 100 x20 * x122
   + 54 x20 * x123 - 12 x20 * x124 - 88 x21 * x26 + 54 x21 * x29
   - 58 x21 * x33 - 24 x21 * x38 + 16 x21 * x40 - 70 x21 * x43
   - 92 x21 * x46 + 10 x21 * x47 + 26 x21 * x53 - 36 x21 * x54
   + 54 x21 * x59 + 48 x21 * x62 + 84 x21 * x63 - 36 x21 * x71
   + 60 x21 * x72 + 66 x21 * x73 + 16 x21 * x75 + 82 x21 * x77
   - 46 x21 * x80 + 4 x21 * x87 - 24 x21 * x91 + 72 x21 * x94
   - 74 x21 * x96 - 88 x21 * x98 + 70 x21 * x100 + 62 x21 * x106
   + 94 x21 * x109 + 4 x21 * x111 - 24 x21 * x112 + 58 x21 * x120
   + 92 x22 * x28 + 40 x22 * x42 - 84 x22 * x43 + 44 x22 * x47
   - 88 x22 * x60 + 54 x22 * x61 + 64 x22 * x64 - 72 x22 * x66
   + 18 x22 * x69 - 60 x22 * x70 + 96 x22 * x75 + 68 x22 * x80
   + 82 x22 * x83 + 96 x22 * x87 + 44 x22 * x91 - 54 x22 * x96
   + 58 x22 * x97 - 44 x22 * x98 - 64 x22 * x101 + 90 x22 * x105
   + 60 x22 * x108 + 98 x22 * x114 + 30 x22 * x116 - 10 x22 * x117
   + 74 x22 * x118 - 42 x23 * x27 + 60 x23 * x31 + 46 x23 * x32
   - 12 x23 * x35 - 22 x23 * x39 + 4 x23 * x41 - 86 x23 * x42
   + 60 x23 * x48 - 8 x23 * x49 - 60 x23 * x54 + 74 x23 * x56
   - 88 x23 * x62 + 64 x23 * x68 - 6 x23 * x69 - 28 x23 * x74
   + 68 x23 * x80 + 74 x23 * x81 - 50 x23 * x84 - 60 x23 * x91
   - 56 x23 * x95 + 82 x23 * x105 - 84 x23 * x112 - 48 x23 * x114
   - 52 x23 * x117 - 20 x23 * x120 + 62 x23 * x122 - 35 x24 ^2
   + 10 x24 * x25 - 100 x24 * x29 - 76 x24 * x30 - 6 x24 * x31
   + 84 x24 * x33 + 84 x24 * x36 - 66 x24 * x37 + 8 x24 * x39
   - 20 x24 * x43 + 86 x24 * x44 + 34 x24 * x47 + 38 x24 * x50
   - 80 x24 * x55 + 100 x24 * x57 - 12 x24 * x61 - 88 x24 * x65
   + 50 x24 * x66 + 60 x24 * x81 - 92 x24 * x83 + 14 x24 * x87
   + 28 x24 * x88 - 58 x24 * x90 + 94 x24 * x91 - 58 x24 * x97
   - 44 x24 * x99 + 70 x24 * x100 - 68 x24 * x108 + 96 x24 * x115
   - 22 x24 * x121 - 56 x24 * x122 + 22 x25 * x32 + 44 x25 * x35
   - 52 x25 * x36 - 92 x25 * x39 - 2 x25 * x42 - 52 x25 * x48
   + 94 x25 * x53 + 42 x25 * x54 + 76 x25 * x55 - 100 x25 * x56
   - 72 x25 * x57 - 12 x25 * x59 + 82 x25 * x64 + 38 x25 * x65
   - 64 x25 * x71 + 54 x25 * x72 - 44 x25 * x79 - 98 x25 * x81
   - 38 x25 * x82 + 70 x25 * x84 - 74 x25 * x86 - 34 x25 * x89
   + 56 x25 * x91 - 34 x25 * x95 - 96 x25 * x101 + 24 x25 * x104
   - 52 x25 * x109 + 82 x25 * x116 - 30 x25 * x117 + 74 x25 * x118
   - 78 x25 * x120 + 58 x25 * x121 - 52 x26 * x29 + 72 x26 * x31
   - 82 x26 * x32 - 32 x26 * x36 - 60 x26 * x40 - 72 x26 * x44
   + 48 x26 * x46 + 82 x26 * x48 + 74 x26 * x49 - 24 x26 * x51
   - 54 x26 * x54 - 64 x26 * x57 + 88 x26 * x59 - 86 x26 * x60
   + 26 x26 * x64 - 42 x26 * x67 - 8 x26 * x76 - 24 x26 * x77
   - 26 x26 * x85 + 64 x26 * x87 - 8 x26 * x88 - 18 x26 * x89 + 8 x26 * x91
   + 16 x26 * x94 + 28 x26 * x99 - 28 x26 * x101 - 24 x26 * x105
   - 58 x26 * x107 - 52 x26 * x114 + 68 x26 * x115 - 100 x26 * x119
   + 10 x27 * x30 - 6 x27 * x31 - 60 x27 * x32 - 44 x27 * x36
   + 96 x27 * x37 + 18 x27 * x42 - 90 x27 * x46 + 50 x27 * x48
   + 58 x27 * x52 - 12 x27 * x54 + 48 x27 * x66 + 32 x27 * x72
   - 26 x27 * x76 - 12 x27 * x78 + 44 x27 * x79 - 22 x27 * x81
   - 50 x27 * x83 - 8 x27 * x86 + 30 x27 * x87 - 4 x27 * x90 + 58 x27 * x91
   - 12 x27 * x92 - 62 x27 * x96 - 82 x27 * x98 - 88 x27 * x107
   - 48 x27 * x108 + 26 x27 * x114 + 22 x27 * x116 + 48 x27 * x118
   + 36 x27 * x123 - 86 x28 * x48 + 32 x28 * x53 - 90 x28 * x60
   + 68 x28 * x67 - 64 x28 * x75 + 56 x28 * x80 - 50 x28 * x97
   - 88 x28 * x98 - 86 x28 * x100 + 60 x28 * x105 + 2 x28 * x109
   + 68 x28 * x110 + 6 x28 * x112 + 94 x28 * x115 - 40 x28 * x116
   - 88 x29 * x32 - 4 x29 * x37 + 48 x29 * x49 - 54 x29 * x51
   + 76 x29 * x64 - 4 x29 * x69 + 6 x29 * x70 + 64 x29 * x76 - 54 x29 * x87
   + 22 x29 * x94 + 94 x29 * x96 + 14 x29 * x99 - 46 x29 * x102
   - 28 x29 * x103 - 50 x29 * x107 + 82 x29 * x109 + 68 x29 * x111
   + 58 x29 * x113 + 4 x29 * x118 + 62 x29 * x122 - 39 x30 ^2
   - 86 x30 * x35 - 98 x30 * x44 - 38 x30 * x53 - 56 x30 * x58
   - 52 x30 * x69 - 98 x30 * x73 + 8 x30 * x78 + 88 x30 * x85
   + 68 x30 * x87 - 42 x30 * x93 - 34 x30 * x95 - 64 x30 * x96
   + 70 x30 * x99 + 68 x30 * x103 - 32 x30 * x104 + 54 x30 * x105
   - 72 x30 * x107 + 38 x30 * x115 + 44 x30 * x119 + 52 x30 * x121
   - 98 x30 * x122 - 76 x31 * x34 + 8 x31 * x36 + 26 x31 * x37
   - 66 x31 * x40 - 80 x31 * x45 - 22 x31 * x47 - 34 x31 * x54
   + 38 x31 * x55 - 74 x31 * x60 - 4 x31 * x61 - 40 x31 * x62
   - 46 x31 * x63 + 78 x31 * x73 + 60 x31 * x74 + 88 x31 * x75
   + 56 x31 * x78 + 52 x31 * x79 - 58 x31 * x84 - 24 x31 * x87
   + 24 x31 * x89 - 44 x31 * x90 + 90 x31 * x91 + 60 x31 * x103
   - 92 x31 * x105 + 84 x31 * x108 - 42 x31 * x112 + 98 x31 * x114
   - 84 x31 * x115 + 12 x31 * x116 + 64 x31 * x120 - 74 x31 * x124
   - 27 x32 ^2 - 90 x32 * x41 - 32 x32 * x44 + 54 x32 * x52 + 16 x32 * x53
   + 54 x32 * x57 - 68 x32 * x58 + 82 x32 * x61 - 98 x32 * x70
   - 34 x32 * x72 - 4 x32 * x73 - 92 x32 * x75 + 20 x32 * x77
   - 30 x32 * x86 + 94 x32 * x90 - 98 x32 * x91 + 100 x32 * x94
   + 62 x32 * x109 - 64 x32 * x110 - 36 x32 * x112 + 22 x32 * x115
   + 92 x32 * x117 - 84 x32 * x122 - 32 x32 * x123 - 80 x33 * x42
   + 78 x33 * x44 - 40 x33 * x45 - 92 x33 * x46 - 50 x33 * x49
   + 94 x33 * x52 + 8 x33 * x53 + 84 x33 * x54 + 88 x33 * x59
   + 14 x33 * x65 - 60 x33 * x67 + 34 x33 * x68 - 40 x33 * x75
   + 18 x33 * x78 - 100 x33 * x81 - 50 x33 * x92 - 10 x33 * x94
   - 56 x33 * x96 - 84 x33 * x97 - 42 x33 * x101 - 4 x33 * x102
   + 40 x33 * x110 - 32 x33 * x116 - 28 x33 * x122 - 30 x33 * x123
   - 80 x34 * x36 + 6 x34 * x38 - 12 x34 * x41 - 10 x34 * x42
   + 88 x34 * x46 + 76 x34 * x51 - 30 x34 * x53 - 70 x34 * x54
   - 58 x34 * x62 + 40 x34 * x65 - 4 x34 * x79 - 54 x34 * x80
   + 98 x34 * x87 + 22 x34 * x88 + 56 x34 * x93 + 42 x34 * x101
   - 16 x34 * x104 - 92 x34 * x110 + 86 x34 * x113 - 92 x34 * x119
   + 32 x34 * x123 + 94 x35 * x39 + 28 x35 * x46 + 50 x35 * x48
   - 22 x35 * x49 - 96 x35 * x50 - 96 x35 * x56 + 12 x35 * x59
   + 46 x35 * x60 - 62 x35 * x66 + 56 x35 * x70 + 20 x35 * x72
   + 98 x35 * x73 + 84 x35 * x87 - 48 x35 * x92 - 42 x35 * x93
   - 48 x35 * x97 - 44 x35 * x106 + 18 x35 * x107 - 30 x35 * x110
   - 10 x35 * x112 - 44 x36 ^2 - 86 x36 * x38 - 86 x36 * x39 + 60 x36 * x44
   + 100 x36 * x49 - 50 x36 * x66 - 18 x36 * x73 + 88 x36 * x82
   - 26 x36 * x83 - 62 x36 * x85 + 46 x36 * x89 - 70 x36 * x90
   - 46 x36 * x94 - 34 x36 * x97 - 32 x36 * x99 + 6 x36 * x109
   + 86 x36 * x118 - 36 x36 * x119 - 2 x37 * x38 - 32 x37 * x40
   - 8 x37 * x44 + 36 x37 * x46 - 36 x37 * x47 + 70 x37 * x49
   + 70 x37 * x50 + 78 x37 * x54 + 64 x37 * x55 + 50 x37 * x57
   - 70 x37 * x59 + 28 x37 * x61 + 74 x37 * x62 + 98 x37 * x65
   - 54 x37 * x67 - 76 x37 * x72 + 62 x37 * x80 + 64 x37 * x82
   - 56 x37 * x85 - 72 x37 * x88 - 36 x37 * x90 - 42 x37 * x93
   + 8 x37 * x97 - 86 x37 * x100 + 64 x37 * x102 - 38 x37 * x106
   - 42 x37 * x107 - 72 x37 * x109 - 24 x37 * x114 - 36 x37 * x118
   - 80 x37 * x120 - 80 x37 * x121 - 33 x38 ^2 + 94 x38 * x42 - 8 x38 * x48
   + 16 x38 * x49 - 94 x38 * x52 - 46 x38 * x53 - 78 x38 * x55
   - 88 x38 * x56 - 52 x38 * x62 + 50 x38 * x63 + 34 x38 * x65
   - 72 x38 * x69 - 60 x38 * x72 + 96 x38 * x74 - 26 x38 * x84
   + 36 x38 * x90 + 100 x38 * x92 + 74 x38 * x101 + 10 x38 * x104
   + 82 x38 * x111 + 34 x39 * x46 + 22 x39 * x47 + 36 x39 * x52
   - 50 x39 * x55 - 36 x39 * x56 - 48 x39 * x57 + 98 x39 * x64
   + 96 x39 * x67 - 42 x39 * x69 - 12 x39 * x77 - 94 x39 * x83
   - 8 x39 * x85 - 78 x39 * x86 - 92 x39 * x88 - 54 x39 * x90
   - 88 x39 * x104 - 68 x39 * x106 - 36 x39 * x108 - 64 x39 * x110
   + 24 x39 * x111 - 96 x39 * x117 + 66 x39 * x118 + 40 x39 * x120
   + 60 x39 * x123 + 46 x40 ^2 - 56 x40 * x46 + 74 x40 * x47 + 70 x40 * x48
   + 90 x40 * x61 - 12 x40 * x65 - 80 x40 * x71 - 92 x40 * x76
   + 62 x40 * x81 + 76 x40 * x85 - 6 x40 * x89 - 44 x40 * x93
   - 26 x40 * x97 - 76 x40 * x99 + 62 x40 * x101 - 18 x40 * x104
   - 40 x40 * x109 + 10 x40 * x111 + 84 x40 * x112 + 54 x40 * x121
   - 16 x41 * x51 + 16 x41 * x52 - 28 x41 * x56 + 14 x41 * x63
   - 86 x41 * x72 - 12 x41 * x75 + 92 x41 * x83 + 88 x41 * x90
   - 58 x41 * x97 + 4 x41 * x99 + 44 x41 * x100 - 100 x41 * x102
   - 68 x41 * x111 - 36 x41 * x116 - 6 x41 * x122 - 5 x42 ^2 - 6 x42 * x51
   + 66 x42 * x52 + 60 x42 * x68 + 8 x42 * x70 + 2 x42 * x83 - 22 x42 * x84
   - 46 x42 * x91 - 82 x42 * x95 - 38 x42 * x104 - 12 x42 * x116
   - 10 x42 * x118 - 84 x42 * x119 - 16 x42 * x120 - 96 x42 * x123
   + 25 x43 ^2 - 66 x43 * x52 - 92 x43 * x56 + 60 x43 * x62 - 58 x43 * x71
   - 28 x43 * x76 - 20 x43 * x80 - 96 x43 * x83 + 44 x43 * x84
   + 54 x43 * x85 - 66 x43 * x86 - 92 x43 * x90 + 58 x43 * x98
   - 48 x43 * x101 + 76 x43 * x120 - 98 x43 * x123 + 92 x43 * x124
   + 16 x44 * x51 - 6 x44 * x53 - 84 x44 * x57 + 38 x44 * x68
   + 60 x44 * x69 + 70 x44 * x72 + 90 x44 * x74 - 86 x44 * x77
   + 38 x44 * x80 - 42 x44 * x84 + 50 x44 * x95 + 62 x44 * x99
   - 64 x44 * x101 + 98 x44 * x104 + 82 x44 * x109 + 4 x44 * x113
   + 18 x44 * x119 - 46 x44 * x120 - 60 x44 * x122 + 23 x45 ^2
   + 8 x45 * x49 + 58 x45 * x61 + 94 x45 * x69 - 22 x45 * x73
   + 42 x45 * x79 - 76 x45 * x84 - 78 x45 * x86 - 10 x45 * x91
   + 68 x45 * x92 - 76 x45 * x95 - 8 x45 * x98 + 52 x45 * x99
   - 86 x45 * x101 - 32 x45 * x103 - 14 x45 * x106 + 98 x45 * x112
   + 78 x45 * x116 + 88 x45 * x121 - 76 x46 * x50 + 10 x46 * x55
   - 42 x46 * x58 + 76 x46 * x59 - 28 x46 * x63 + 44 x46 * x64
   - 16 x46 * x65 + 16 x46 * x68 - 40 x46 * x71 - 18 x46 * x73
   - 14 x46 * x81 + 58 x46 * x84 - 50 x46 * x89 + 70 x46 * x92
   + 76 x46 * x93 + 54 x46 * x96 - 86 x46 * x97 + 76 x46 * x98
   - 28 x46 * x99 - 68 x46 * x101 + 40 x46 * x102 - 74 x46 * x103
   + 16 x46 * x106 + 66 x46 * x109 + 16 x46 * x111 + 60 x46 * x115
   + 86 x46 * x121 - 82 x47 * x54 + 6 x47 * x58 - 74 x47 * x71
   - 28 x47 * x73 + 74 x47 * x80 + 32 x47 * x84 + 42 x47 * x86
   + 90 x47 * x88 + 68 x47 * x99 + 56 x47 * x101 - 42 x47 * x106
   + 96 x47 * x115 - 20 x47 * x116 - 96 x47 * x117 + 68 x47 * x123
   - 17 x48 ^2 - 70 x48 * x58 - 54 x48 * x68 - 16 x48 * x74 + 72 x48 * x76
   + 2 x48 * x80 - 38 x48 * x95 - 8 x48 * x101 - 64 x48 * x103
   - 34 x48 * x104 + 78 x48 * x105 - 18 x48 * x110 - 6 x48 * x112
   + 86 x48 * x119 + 52 x48 * x121 - 16 x49 * x52 - 50 x49 * x53
   - 58 x49 * x60 + 30 x49 * x61 - 20 x49 * x64 + 16 x49 * x69
   + 40 x49 * x71 + 92 x49 * x82 + 36 x49 * x87 - 84 x49 * x106
   - 74 x49 * x108 - 60 x49 * x109 + 94 x49 * x112 + 44 x49 * x115
   - 22 x49 * x120 + 30 x49 * x123 + 8 x50 * x53 - 64 x50 * x62
   - 58 x50 * x66 - 98 x50 * x70 + 12 x50 * x71 - 90 x50 * x72
   + 22 x50 * x73 - 86 x50 * x78 + 50 x50 * x79 - 58 x50 * x89
   - 28 x50 * x101 - 92 x50 * x108 - 6 x50 * x109 - 68 x50 * x121
   - 28 x50 * x124 - 38 x51 * x56 + 66 x51 * x62 - 76 x51 * x63
   + 40 x51 * x69 - 22 x51 * x71 + 76 x51 * x86 + 96 x51 * x87
   + 98 x51 * x93 + 46 x51 * x94 - 68 x51 * x99 + 24 x51 * x100
   + 42 x51 * x105 - 66 x51 * x108 + 60 x51 * x116 - 42 x51 * x122
   - 33 x52 ^2 - 90 x52 * x54 - 2 x52 * x55 + 34 x52 * x62 - 36 x52 * x67
   - 56 x52 * x74 + 56 x52 * x75 + 40 x52 * x77 + 30 x52 * x86
   - 2 x52 * x88 + 20 x52 * x106 - 90 x52 * x107 - 48 x52 * x111
   - 94 x52 * x112 - 70 x52 * x115 + 94 x52 * x121 + 90 x52 * x122
   + 22 x52 * x123 + 30 x53 * x55 - 98 x53 * x65 + 18 x53 * x67
   - 66 x53 * x78 + 70 x53 * x83 - 32 x53 * x84 - 40 x53 * x94
   + 100 x53 * x96 + 46 x53 * x99 - 86 x53 * x106 + 4 x53 * x109
   - 98 x53 * x120 - 74 x54 * x57 - 56 x54 * x63 + 62 x54 * x66
   + 58 x54 * x70 + 24 x54 * x78 + 74 x54 * x86 + 92 x54 * x88
   + 30 x54 * x91 - 42 x54 * x92 - 90 x54 * x96 + 74 x54 * x104
   - 50 x54 * x107 + 26 x54 * x112 - 48 x54 * x116 + 46 x54 * x118
   + 2 x54 * x120 - 92 x54 * x123 + 24 x55 * x56 + 66 x55 * x59
   - 64 x55 * x65 + 76 x55 * x67 - 38 x55 * x70 - 52 x55 * x73
   + 90 x55 * x77 - 82 x55 * x80 - 68 x55 * x85 + 14 x55 * x86
   - 60 x55 * x95 + 24 x55 * x100 + 20 x55 * x102 + 64 x55 * x106
   + 8 x55 * x113 - 24 x55 * x116 - 80 x55 * x117 - 28 x55 * x120
   + 30 x55 * x123 + 28 x55 * x124 - 56 x56 * x67 - 46 x56 * x74
   - 6 x56 * x76 - 30 x56 * x83 - 30 x56 * x86 - 80 x56 * x88
   - 86 x56 * x90 - 42 x56 * x91 + 88 x56 * x92 + 60 x56 * x94
   + 32 x56 * x106 - 64 x56 * x110 + 78 x56 * x113 - 14 x56 * x117
   - 78 x56 * x122 + 40 x57 * x59 - 24 x57 * x61 + 4 x57 * x63
   - 62 x57 * x69 - 52 x57 * x71 + 86 x57 * x72 + 22 x57 * x73
   + 86 x57 * x83 + 4 x57 * x86 + 72 x57 * x91 - 30 x57 * x92
   - 62 x57 * x93 - 38 x57 * x96 + 80 x57 * x98 + 38 x57 * x100
   + 80 x57 * x103 - 44 x57 * x104 + 76 x57 * x108 + 56 x57 * x109
   + 84 x57 * x110 + 2 x57 * x112 - 62 x57 * x118 - 58 x57 * x122
   - 22 x57 * x124 + 23 x58 ^2 - 52 x58 * x59 - 48 x58 * x64 - 98 x58 * x66
   - 100 x58 * x68 - 40 x58 * x69 - 54 x58 * x73 - 22 x58 * x80
   + 8 x58 * x84 - 12 x58 * x91 + 54 x58 * x92 - 100 x58 * x96
   - 48 x58 * x102 + 92 x58 * x106 - 82 x58 * x109 - 82 x58 * x113
   - 62 x58 * x119 - 68 x58 * x120 - 80 x59 * x66 + 14 x59 * x69
   + 52 x59 * x71 + 60 x59 * x73 + 98 x59 * x79 - 16 x59 * x80
   + 56 x59 * x81 - 34 x59 * x84 + 64 x59 * x85 + 80 x59 * x87
   - 22 x59 * x88 + 20 x59 * x90 - 46 x59 * x92 - 92 x59 * x97
   - 90 x59 * x98 - 82 x59 * x100 - 58 x59 * x101 - 4 x59 * x107
   + 10 x59 * x118 + 86 x59 * x119 + 92 x59 * x121 - 3 x60 ^2
   + 28 x60 * x63 + 30 x60 * x65 + 14 x60 * x66 + 2 x60 * x67
   + 56 x60 * x74 + 58 x60 * x75 + 66 x60 * x87 - 98 x60 * x95
   - 84 x60 * x100 + 18 x60 * x101 + 66 x60 * x103 - 98 x60 * x106
   - 38 x60 * x108 + 38 x60 * x112 - 100 x60 * x116 + 41 x61 ^2
   - 74 x61 * x65 + 16 x61 * x66 + 92 x61 * x67 + 2 x61 * x69
   + 38 x61 * x70 + 80 x61 * x72 - 8 x61 * x75 - 20 x61 * x83
   + 20 x61 * x85 + 38 x61 * x87 + 14 x61 * x96 + 2 x61 * x97
   + 14 x61 * x99 - 52 x61 * x110 + 22 x61 * x112 - 46 x61 * x118
   + 90 x61 * x122 - 94 x62 * x65 + 28 x62 * x68 - 38 x62 * x72
   + 50 x62 * x73 - 56 x62 * x74 + 92 x62 * x77 - 76 x62 * x85
   + 22 x62 * x86 - 34 x62 * x88 + 98 x62 * x91 + 78 x62 * x92
   - 90 x62 * x93 + 6 x62 * x98 - 26 x62 * x103 + 52 x62 * x108
   - 2 x62 * x109 - 10 x62 * x110 + 100 x62 * x112 + 10 x62 * x113
   + 92 x62 * x114 + 64 x63 * x67 - 54 x63 * x70 - 44 x63 * x76
   - 74 x63 * x81 - 26 x63 * x82 + 20 x63 * x84 - 10 x63 * x87
   + 72 x63 * x90 + 36 x63 * x95 - 12 x63 * x97 + 40 x63 * x98
   + 64 x63 * x100 - 10 x63 * x102 + 58 x63 * x104 + 18 x63 * x105
   - 100 x63 * x109 - 76 x63 * x110 + 56 x63 * x111 + 28 x63 * x118
   + 58 x63 * x120 - 12 x63 * x124 - 50 x64 ^2 - 36 x64 * x70
   + 72 x64 * x76 - 8 x64 * x77 - 6 x64 * x84 - 36 x64 * x86 + 72 x64 * x90
   - 56 x64 * x96 - 2 x64 * x98 + 90 x64 * x106 - 2 x64 * x112
   + 76 x64 * x114 - 76 x64 * x120 - 26 x65 * x68 + 14 x65 * x70
   + 6 x65 * x73 + 92 x65 * x82 - 60 x65 * x90 + 80 x65 * x101
   - 50 x65 * x104 - 20 x65 * x112 - 96 x65 * x119 - 88 x66 * x74
   - 44 x66 * x75 - 50 x66 * x79 + 60 x66 * x81 - 84 x66 * x86
   - 32 x66 * x87 - 18 x66 * x89 - 2 x66 * x90 + 24 x66 * x92
   - 28 x66 * x93 + 24 x66 * x104 - 44 x66 * x109 - 38 x66 * x110
   - 90 x66 * x112 - 72 x66 * x116 + 42 x66 * x121 + 43 x67 ^2
   - 76 x67 * x71 - 52 x67 * x74 - 48 x67 * x80 - 2 x67 * x83
   - 24 x67 * x87 - 24 x67 * x98 - 18 x67 * x101 + 64 x67 * x104
   - 92 x67 * x107 - 88 x67 * x108 + 8 x67 * x109 - 78 x67 * x116
   + 18 x67 * x120 + 62 x68 * x71 + 60 x68 * x78 - 50 x68 * x84
   + 86 x68 * x85 - 62 x68 * x91 + 10 x68 * x99 - 22 x68 * x100
   - 72 x68 * x106 + 86 x68 * x112 + 92 x68 * x113 - 6 x68 * x115
   - 4 x68 * x123 + 70 x69 * x71 + 46 x69 * x73 - 40 x69 * x75
   + 82 x69 * x78 - 82 x69 * x82 + 40 x69 * x85 + 72 x69 * x92
   + 84 x69 * x95 + 12 x69 * x97 + 62 x69 * x102 + 44 x69 * x103
   - 28 x69 * x110 - 16 x69 * x112 - 40 x69 * x116 - 26 x69 * x118
   + 4 x69 * x120 + 12 x69 * x124 + 96 x70 * x82 - 98 x70 * x84
   + 66 x70 * x89 + 90 x70 * x91 - 66 x70 * x93 - 98 x70 * x104
   - 52 x70 * x108 - 24 x70 * x111 + 66 x70 * x124 + 96 x71 * x72
   + 70 x71 * x75 + 60 x71 * x85 + 54 x71 * x86 + 38 x71 * x87
   + 26 x71 * x96 + 22 x71 * x99 - 68 x71 * x110 + 30 x71 * x113
   - 84 x71 * x119 + 60 x71 * x122 - 82 x71 * x124 + 78 x72 * x73
   - 90 x72 * x78 - 8 x72 * x80 - 4 x72 * x85 - 90 x72 * x90 - 72 x72 * x94
   + 34 x72 * x99 - 62 x72 * x100 + 34 x72 * x110 + 6 x72 * x117
   + 92 x72 * x122 - 42 x72 * x124 + 37 x73 ^2 + 48 x73 * x75
   - 48 x73 * x78 + 26 x73 * x84 - 58 x73 * x87 + 6 x73 * x89
   - 74 x73 * x93 + 94 x73 * x100 - 78 x73 * x104 + 40 x73 * x107
   + 70 x73 * x108 + 38 x73 * x109 - 88 x73 * x110 - 90 x73 * x111
   - 46 x73 * x113 + 16 x73 * x114 - 58 x73 * x117 - 86 x73 * x118
   - 64 x73 * x120 - 100 x73 * x123 - 6 x74 * x76 + 28 x74 * x78
   + 96 x74 * x79 - 36 x74 * x82 - 58 x74 * x83 + 84 x74 * x86
   - 56 x74 * x95 + 56 x74 * x101 + 16 x74 * x103 + 22 x74 * x106
   + 28 x74 * x109 - 12 x74 * x118 + 2 x74 * x119 + 32 x74 * x123
   - 90 x75 * x84 - 84 x75 * x86 - 24 x75 * x88 - 12 x75 * x89
   + 84 x75 * x91 - 40 x75 * x92 + 2 x75 * x94 - 46 x75 * x101
   + 58 x75 * x116 + 38 x75 * x117 + 42 x75 * x121 - 98 x75 * x122
   - 12 x76 * x77 - 88 x76 * x78 + 46 x76 * x80 + 94 x76 * x84
   + 84 x76 * x88 - 50 x76 * x93 + 52 x76 * x94 + 46 x76 * x101
   + 10 x76 * x108 - 36 x76 * x116 - 44 x76 * x117 - 74 x76 * x122
   - 90 x77 * x80 - 38 x77 * x82 + 30 x77 * x85 - 62 x77 * x90
   + 10 x77 * x92 - 44 x77 * x94 - 56 x77 * x95 + 34 x77 * x104
   - 64 x77 * x105 + 20 x77 * x109 + 16 x77 * x119 - 56 x77 * x124
   + 56 x78 * x79 - 60 x78 * x80 - 98 x78 * x81 + 84 x78 * x82
   - 8 x78 * x88 - 70 x78 * x90 - 34 x78 * x91 + 62 x78 * x97
   - 28 x78 * x102 + 52 x78 * x105 + 22 x78 * x109 + 14 x78 * x115
   + 64 x78 * x121 - 64 x78 * x123 - 66 x79 * x81 - 58 x79 * x84
   + 46 x79 * x92 + 6 x79 * x102 - 88 x79 * x103 - 68 x79 * x104
   + 74 x79 * x109 + 20 x79 * x113 - 10 x79 * x116 - 74 x79 * x118
   - 42 x79 * x119 + 56 x80 * x90 + 64 x80 * x91 + 92 x80 * x95
   + 36 x80 * x96 + 62 x80 * x106 + 32 x80 * x108 - 50 x80 * x109
   + 40 x80 * x123 + 58 x81 * x83 - 82 x81 * x88 - 68 x81 * x89
   - 20 x81 * x92 - 24 x81 * x96 - 60 x81 * x109 + 100 x81 * x111
   - 50 x81 * x115 - 78 x81 * x118 + 52 x82 * x86 + 86 x82 * x104
   + 44 x82 * x105 - 50 x82 * x108 + 66 x82 * x109 - 70 x82 * x119
   + 84 x82 * x120 + 50 x82 * x123 + 40 x83 * x84 - 26 x83 * x85
   - 100 x83 * x98 + 54 x83 * x101 - 74 x83 * x108 - 6 x83 * x111
   + 2 x84 * x86 + 28 x84 * x89 + 80 x84 * x93 - 6 x84 * x97
   - 80 x84 * x104 - 28 x84 * x105 - 30 x84 * x106 - 70 x84 * x109
   - 86 x84 * x110 + 88 x84 * x112 - 30 x84 * x115 - 98 x84 * x118
   - 90 x84 * x123 - 78 x84 * x124 - 52 x85 * x89 + 88 x85 * x97
   - 84 x85 * x100 - 60 x85 * x102 + 74 x85 * x106 - 44 x85 * x108
   + 2 x85 * x109 - 68 x85 * x110 + 58 x85 * x112 + 50 x85 * x116
   + 56 x86 * x87 + 18 x86 * x89 + 20 x86 * x90 + 56 x86 * x95
   + 42 x86 * x98 - 76 x86 * x107 - 16 x86 * x110 - 4 x86 * x114
   + 4 x86 * x117 - 10 x86 * x118 - 24 x86 * x119 - 34 x86 * x120
   - 66 x86 * x121 - 12 x86 * x122 - 6 x86 * x123 - 100 x87 * x88
   + 82 x87 * x89 - 80 x87 * x92 - 64 x87 * x97 + 88 x87 * x98
   + 36 x87 * x100 + 2 x87 * x103 - 94 x87 * x112 - 76 x87 * x114
   - 8 x87 * x123 + 36 x88 ^2 + 66 x88 * x92 - 30 x88 * x95 + 34 x88 * x106
   + 20 x88 * x111 + 92 x88 * x112 + 62 x88 * x114 + 64 x88 * x115
   + 16 x88 * x117 + 46 x88 * x118 + 16 x88 * x119 - 4 x88 * x124
   + 35 x89 ^2 + 68 x89 * x96 - 26 x89 * x97 - 74 x89 * x98 - 6 x89 * x99
   - 18 x89 * x101 + 74 x89 * x107 - 78 x89 * x110 - 78 x89 * x111
   + 14 x89 * x112 + 88 x89 * x115 - 30 x89 * x117 - 52 x89 * x120
   + 52 x89 * x121 + 10 x89 * x123 + 20 x90 ^2 - 32 x90 * x91
   + 46 x90 * x94 - 4 x90 * x95 - 90 x90 * x97 - 14 x90 * x98
   + 46 x90 * x119 - 66 x90 * x122 - 2 x91 * x93 - 92 x91 * x97
   - 32 x91 * x101 + 4 x91 * x103 + 26 x91 * x104 + 14 x91 * x105
   - 90 x91 * x110 + 46 x91 * x111 + 22 x91 * x113 + 38 x91 * x123
   - 44 x92 * x93 + 94 x92 * x105 - 98 x92 * x119 - 30 x92 * x121
   - 26 x92 * x122 - 18 x92 * x123 + 6 x93 * x96 - 14 x93 * x99
   - 8 x93 * x101 - 44 x93 * x104 + 76 x93 * x121 + 94 x93 * x124
   + 34 x94 * x100 + 64 x94 * x101 + 16 x94 * x111 - 26 x94 * x113
   + 56 x94 * x120 - 100 x94 * x124 - 52 x95 * x97 - 80 x95 * x101
   - 38 x95 * x106 + 52 x95 * x109 + 66 x95 * x115 - 100 x95 * x119
   + 62 x95 * x120 - 94 x95 * x121 + 26 x96 * x99 + 76 x96 * x100
   + 44 x96 * x102 + 68 x96 * x105 + 24 x96 * x110 + 76 x96 * x111
   - 52 x96 * x118 + 30 x97 * x99 + 54 x97 * x100 - 6 x97 * x102
   + 2 x97 * x106 + 98 x97 * x107 - 34 x97 * x112 - 90 x97 * x115
   - 16 x97 * x123 - 12 x98 ^2 - 70 x98 * x101 + 42 x98 * x105
   + 70 x98 * x106 - 46 x98 * x107 - 50 x98 * x109 - 40 x98 * x112
   + 64 x98 * x113 + 100 x98 * x115 - 86 x98 * x116 + 26 x98 * x117
   + 76 x98 * x118 - 48 x99 ^2 + 10 x99 * x103 - 82 x99 * x105
   - 40 x99 * x107 + 22 x99 * x113 + 94 x99 * x114 - 82 x99 * x118
   - 94 x100 * x102 - 66 x100 * x103 + 10 x100 * x104 - 32 x100 * x105
   + 18 x100 * x109 - 48 x100 * x113 - 32 x101 * x110 - 50 x101 * x114
   - 72 x101 * x116 - 60 x102 * x103 - 92 x102 * x104 - 74 x102 * x107
   + 86 x102 * x108 - 42 x102 * x113 - 48 x102 * x121 - 12 x102 * x123
   + 8 x103 * x106 + 92 x103 * x107 - 80 x103 * x121 + 6 x103 * x123
   - 26 x103 * x124 + 86 x104 * x106 + 60 x104 * x110 - 8 x104 * x112
   - 18 x104 * x116 + 100 x105 * x108 + 12 x105 * x110 + 90 x105 * x111
   - 54 x105 * x114 - 36 x105 * x115 + 86 x105 * x123 + 74 x106 * x111
   - 2 x106 * x112 - 82 x106 * x113 - 70 x106 * x114 + 44 x106 * x119
   + 58 x107 * x109 - 32 x107 * x117 - 16 x107 * x120 - 70 x107 * x123
   - 64 x108 * x110 + 84 x108 * x117 - 52 x108 * x119 - 74 x108 * x122
   - 66 x109 * x113 + 88 x109 * x117 - 8 x109 * x119 + 39 x110 ^2
   - 2 x110 * x115 + 56 x110 * x116 - 22 x110 * x120 - 60 x110 * x124
   + 3 x111 ^2 - 44 x111 * x114 + 58 x111 * x118 - 98 x111 * x120
   - 68 x111 * x121 - 42 x112 ^2 + 8 x112 * x114 - 50 x113 * x124
   + 80 x114 * x118 - 36 x114 * x124 + 80 x115 * x124 - 10 x116 ^2
   - 46 x117 ^2 - 86 x117 * x118 - 34 x117 * x120 - 16 x117 * x121
   - 76 x117 * x122 + 80 x117 * x124 - 82 x118 * x120 + 36 x119 ^2
   + 94 x119 * x120 + 58 x119 * x123 - 41 x120 ^2 - 46 x121 * x122
   + 60 x123 * x124 ] / 2 
Subject To
Bounds
 x0 <= 1
 x1 <= 1
 x2 <= 1
 x3 <= 1
 x4 <= 1
 x5 <= 1
 x6 <= 1
 x7 <= 1
 x8 <= 1
 x9 <= 1
 x10 <= 1
 x11 <= 1
 x12 <= 1
 x13 <= 1
 x14 <= 1
 x15 <= 1
 x16 <= 1
 x17 <= 1
 x18 <= 1
 x19 <= 1
 x20 <= 1
 x21 <= 1
 x22 <= 1
 x23 <= 1
 x24 <= 1
 x25 <= 1
 x26 <= 1
 x27 <= 1
 x28 <= 1
 x29 <= 1
 x30 <= 1
 x31 <= 1
 x32 <= 1
 x33 <= 1
 x34 <= 1
 x35 <= 1
 x36 <= 1
 x37 <= 1
 x38 <= 1
 x39 <= 1
 x40 <= 1
 x41 <= 1
 x42 <= 1
 x43 <= 1
 x44 <= 1
 x45 <= 1
 x46 <= 1
 x47 <= 1
 x48 <= 1
 x49 <= 1
 x50 <= 1
 x51 <= 1
 x52 <= 1
 x53 <= 1
 x54 <= 1
 x55 <= 1
 x56 <= 1
 x57 <= 1
 x58 <= 1
 x59 <= 1
 x60 <= 1
 x61 <= 1
 x62 <= 1
 x63 <= 1
 x64 <= 1
 x65 <= 1
 x66 <= 1
 x67 <= 1
 x68 <= 1
 x69 <= 1
 x70 <= 1
 x71 <= 1
 x72 <= 1
 x73 <= 1
 x74 <= 1
 x75 <= 1
 x76 <= 1
 x77 <= 1
 x78 <= 1
 x79 <= 1
 x80 <= 1
 x81 <= 1
 x82 <= 1
 x83 <= 1
 x84 <= 1
 x85 <= 1
 x86 <= 1
 x87 <= 1
 x88 <= 1
 x89 <= 1
 x90 <= 1
 x91 <= 1
 x92 <= 1
 x93 <= 1
 x94 <= 1
 x95 <= 1
 x96 <= 1
 x97 <= 1
 x98 <= 1
 x99 <= 1
 x100 <= 1
 x101 <= 1
 x102 <= 1
 x103 <= 1
 x104 <= 1
 x105 <= 1
 x106 <= 1
 x107 <= 1
 x108 <= 1
 x109 <= 1
 x110 <= 1
 x111 <= 1
 x112 <= 1
 x113 <= 1
 x114 <= 1
 x115 <= 1
 x116 <= 1
 x117 <= 1
 x118 <= 1
 x119 <= 1
 x120 <= 1
 x121 <= 1
 x122 <= 1
 x123 <= 1
 x124 <= 1
End
